c Random 3-CNF over 20 variables and 50 clauses
c Generated with `cnfgen`
c (C) 2012-2018 Massimo Lauria <lauria.massimo@gmail.com>
c https://massimolauria.github.io/cnfgen
c
c COMMAND LINE: cnfgen randkcnf 3 20 50
c
p cnf 20 50
-5 6 -15 0
-8 9 11 0
1 4 -16 0
-12 -18 -20 0
-9 11 14 0
-4 17 -19 0
3 -10 -16 0
-1 -12 13 0
-3 7 16 0
-9 -17 -20 0
-10 -15 -18 0
-2 -10 14 0
-7 -9 -18 0
5 -9 -10 0
1 -5 9 0
4 -13 15 0
10 11 19 0
-1 -3 13 0
1 3 18 0
-1 -7 -8 0
-5 15 -19 0
1 5 -8 0
-7 13 -16 0
-1 -2 6 0
-1 7 19 0
11 -15 -20 0
4 10 12 0
-9 -14 -19 0
-8 14 20 0
8 19 -20 0
-8 10 -12 0
5 -6 -20 0
-2 -16 20 0
-2 -3 -16 0
-13 15 19 0
-3 -9 -15 0
-11 15 18 0
10 17 -20 0
3 9 -14 0
-9 -10 -15 0
1 -8 -16 0
4 -8 12 0
3 -6 -11 0
3 -4 17 0
-1 8 12 0
-13 -17 20 0
-1 3 -18 0
-9 15 19 0
8 -12 -19 0
-5 11 18 0
